45463
1 0 1 1 1 1 1 1 0 1 1 1 1 1 1 0 1 1 0 1 0 0 1 1 1 1 1 0 1 0 
7 19 2 24 2 12 16 28 22 28 4 28 13 3 28 7 13 10 22 0 11 16 5 24 10 11 24 19 4 5 19 19 4 16 0 12 10 9 24 16 7 9 6 4 13 19 13 2 19 14 24 16 24 16 9 6 11 9 22 7 4 0 7 9 13 11 5 14 28 25 7 12 6 9 23 23 10 23 9 16 10 0 9 25 4 13 6 5 24 7 28 6 25 25 2 3 28 12 0 28 17 16 25 7 4 0 4 24 22 3 19 4 22 12 12 9 28 7 17 9 9 11 17 19 26 16 2 11 26 17 28 24 11 10 23 9 3 3 28 10 12 22 11 11 25 5 24 16 22 25 24 17 23 0 13 28 2 16 3 3 13 0 10 2 5 24 5 4 3 16 5 10 19 14 26 2 0 10 4 10 5 16 2 6 12 9 28 23 0 24 2 16 6 4 7 12 7 2 10 19 
